78678.0
1770
0 1 2 3 7 10 11 13 14 15 16 17 18 19 20 22 26 27 29 32 33 34 35 36 37 38 39 41 42 43 44 47 49 51 52 54 55 56 57 58 60 61 64 65 66 67 69 70 71 72 73 74 76 81 82 84 86 87 88 89 90 91 92 93 94 95 97 99 